Instance name : RC106
Authors : Bent & Van Hentenryck
Date :    2001
Reference : Technical Report, CS-01-06, Department of Computer Science, Brown University, September 2001.
Solution
Route 1 : 95 62 63 85 76 51 84 56 66
Route 2 : 72 71 67 30 32 34 50 93 80
Route 3 : 2 45 5 8 7 6 46 4 3 1 100
Route 4 : 92 61 81 90 94 96 54 68
Route 5 : 14 11 87 59 75 97 58 74
Route 6 : 69 98 88 53 12 10 9 13 17
Route 7 : 42 44 39 40 36 38 41 43 37 35
Route 8 : 15 16 47 78 73 79 60 55 70
Route 9 : 33 31 29 27 28 26 89
Route 10 : 82 52 99 86 57 22 49 20 24 91
Route 11 : 65 83 64 19 23 21 18 48 25 77